p cnf 256 1
256 0
w 1 0.560532
w 2 1 1
w 2 -1 0
w 3 2 1
w 3 -2 0
w 4 3 0.896839
w 4 -3 0.758913
w 5 4 1
w 5 -4 0
w 6 5 0
w 6 -5 1
w 7 6 1
w 7 -6 0
w 8 7 0.603817
w 8 -7 0.0268989
w 9 8 0.314625
w 9 -8 0.579371
w 10 9 0
w 10 -9 1
w 11 10 0
w 11 -10 1
w 12 11 1
w 12 -11 0
w 13 12 0
w 13 -12 1
w 14 13 0
w 14 -13 1
w 15 14 1
w 15 -14 0
w 16 15 1
w 16 -15 0
w 17 1 1
w 17 -1 0
w 18 17 2 0.302063
w 18 17 -2 0.105854
w 18 -17 2 0.424752
w 18 -17 -2 0.542334
w 19 18 3 0.314117
w 19 18 -3 0.904949
w 19 -18 3 0.497506
w 19 -18 -3 0.0911779
w 20 19 4 0
w 20 19 -4 1
w 20 -19 4 0
w 20 -19 -4 1
w 21 20 5 0
w 21 20 -5 1
w 21 -20 5 1
w 21 -20 -5 1
w 22 21 6 0
w 22 21 -6 1
w 22 -21 6 1
w 22 -21 -6 0
w 23 22 7 0.00209253
w 23 22 -7 0.93354
w 23 -22 7 0.754436
w 23 -22 -7 0.407317
w 24 23 8 0
w 24 23 -8 1
w 24 -23 8 0
w 24 -23 -8 0
w 25 24 9 1
w 25 24 -9 0
w 25 -24 9 0
w 25 -24 -9 1
w 26 25 10 1
w 26 25 -10 1
w 26 -25 10 1
w 26 -25 -10 0
w 27 26 11 0.48985
w 27 26 -11 0.696154
w 27 -26 11 0.0162283
w 27 -26 -11 0.770346
w 28 27 12 0
w 28 27 -12 0
w 28 -27 12 1
w 28 -27 -12 0
w 29 28 13 1
w 29 28 -13 0
w 29 -28 13 1
w 29 -28 -13 0
w 30 29 14 0
w 30 29 -14 0
w 30 -29 14 1
w 30 -29 -14 0
w 31 30 15 0.0663605
w 31 30 -15 0.607395
w 31 -30 15 0.64793
w 31 -30 -15 0.489966
w 32 31 16 0
w 32 31 -16 0
w 32 -31 16 0
w 32 -31 -16 1
w 33 17 0
w 33 -17 1
w 34 33 18 0.66616
w 34 33 -18 0.0218417
w 34 -33 18 0.999149
w 34 -33 -18 0.260689
w 35 34 19 1
w 35 34 -19 0
w 35 -34 19 0
w 35 -34 -19 1
w 36 35 20 0
w 36 35 -20 1
w 36 -35 20 1
w 36 -35 -20 0
w 37 36 21 0.732402
w 37 36 -21 0.506226
w 37 -36 21 0.301077
w 37 -36 -21 0.698267
w 38 37 22 1
w 38 37 -22 0
w 38 -37 22 1
w 38 -37 -22 0
w 39 38 23 1
w 39 38 -23 1
w 39 -38 23 0
w 39 -38 -23 1
w 40 39 24 0
w 40 39 -24 0
w 40 -39 24 1
w 40 -39 -24 1
w 41 40 25 0
w 41 40 -25 0
w 41 -40 25 1
w 41 -40 -25 1
w 42 41 26 0
w 42 41 -26 1
w 42 -41 26 0
w 42 -41 -26 1
w 43 42 27 0
w 43 42 -27 1
w 43 -42 27 1
w 43 -42 -27 1
w 44 43 28 0.625649
w 44 43 -28 0.177488
w 44 -43 28 0.18807
w 44 -43 -28 0.688202
w 45 44 29 0
w 45 44 -29 1
w 45 -44 29 0
w 45 -44 -29 0
w 46 45 30 0
w 46 45 -30 0
w 46 -45 30 1
w 46 -45 -30 1
w 47 46 31 1
w 47 46 -31 1
w 47 -46 31 0
w 47 -46 -31 0
w 48 47 32 1
w 48 47 -32 0
w 48 -47 32 1
w 48 -47 -32 0
w 49 33 0
w 49 -33 1
w 50 49 34 1
w 50 49 -34 0
w 50 -49 34 1
w 50 -49 -34 0
w 51 50 35 0
w 51 50 -35 1
w 51 -50 35 0
w 51 -50 -35 0
w 52 51 36 1
w 52 51 -36 0
w 52 -51 36 1
w 52 -51 -36 0
w 53 52 37 1
w 53 52 -37 0
w 53 -52 37 1
w 53 -52 -37 1
w 54 53 38 0.559511
w 54 53 -38 0.346351
w 54 -53 38 0.0864549
w 54 -53 -38 0.53549
w 55 54 39 1
w 55 54 -39 0
w 55 -54 39 0
w 55 -54 -39 1
w 56 55 40 1
w 56 55 -40 1
w 56 -55 40 0
w 56 -55 -40 1
w 57 56 41 0
w 57 56 -41 0
w 57 -56 41 1
w 57 -56 -41 0
w 58 57 42 0
w 58 57 -42 1
w 58 -57 42 0
w 58 -57 -42 1
w 59 58 43 0
w 59 58 -43 0
w 59 -58 43 1
w 59 -58 -43 1
w 60 59 44 0.479158
w 60 59 -44 0.410009
w 60 -59 44 0.285021
w 60 -59 -44 0.565612
w 61 60 45 0.76873
w 61 60 -45 0.640201
w 61 -60 45 0.57456
w 61 -60 -45 0.801002
w 62 61 46 1
w 62 61 -46 0
w 62 -61 46 1
w 62 -61 -46 1
w 63 62 47 0.858634
w 63 62 -47 0.815338
w 63 -62 47 0.764515
w 63 -62 -47 0.171798
w 64 63 48 0
w 64 63 -48 0
w 64 -63 48 1
w 64 -63 -48 0
w 65 49 1
w 65 -49 0
w 66 65 50 1
w 66 65 -50 0
w 66 -65 50 1
w 66 -65 -50 1
w 67 66 51 1
w 67 66 -51 0
w 67 -66 51 1
w 67 -66 -51 0
w 68 67 52 0
w 68 67 -52 1
w 68 -67 52 0
w 68 -67 -52 0
w 69 68 53 0
w 69 68 -53 1
w 69 -68 53 0
w 69 -68 -53 0
w 70 69 54 0.75991
w 70 69 -54 0.471218
w 70 -69 54 0.0236418
w 70 -69 -54 0.97116
w 71 70 55 1
w 71 70 -55 0
w 71 -70 55 1
w 71 -70 -55 0
w 72 71 56 0.751696
w 72 71 -56 0.922519
w 72 -71 56 0.362803
w 72 -71 -56 0.214844
w 73 72 57 1
w 73 72 -57 1
w 73 -72 57 1
w 73 -72 -57 0
w 74 73 58 0.889048
w 74 73 -58 0.405068
w 74 -73 58 0.299869
w 74 -73 -58 0.286387
w 75 74 59 0.958214
w 75 74 -59 0.209168
w 75 -74 59 0.944131
w 75 -74 -59 0.902786
w 76 75 60 0.795975
w 76 75 -60 0.662697
w 76 -75 60 0.387089
w 76 -75 -60 0.819617
w 77 76 61 1
w 77 76 -61 1
w 77 -76 61 1
w 77 -76 -61 0
w 78 77 62 0
w 78 77 -62 0
w 78 -77 62 1
w 78 -77 -62 1
w 79 78 63 0.510101
w 79 78 -63 0.948272
w 79 -78 63 0.907779
w 79 -78 -63 0.802812
w 80 79 64 0
w 80 79 -64 1
w 80 -79 64 1
w 80 -79 -64 0
w 81 65 0.413237
w 81 -65 0.0725162
w 82 81 66 1
w 82 81 -66 1
w 82 -81 66 1
w 82 -81 -66 0
w 83 82 67 1
w 83 82 -67 0
w 83 -82 67 0
w 83 -82 -67 0
w 84 83 68 0
w 84 83 -68 1
w 84 -83 68 1
w 84 -83 -68 1
w 85 84 69 0.280138
w 85 84 -69 0.482521
w 85 -84 69 0.454408
w 85 -84 -69 0.22841
w 86 85 70 1
w 86 85 -70 1
w 86 -85 70 0
w 86 -85 -70 0
w 87 86 71 0
w 87 86 -71 0
w 87 -86 71 1
w 87 -86 -71 0
w 88 87 72 1
w 88 87 -72 1
w 88 -87 72 1
w 88 -87 -72 0
w 89 88 73 0
w 89 88 -73 1
w 89 -88 73 1
w 89 -88 -73 0
w 90 89 74 1
w 90 89 -74 0
w 90 -89 74 1
w 90 -89 -74 0
w 91 90 75 0
w 91 90 -75 1
w 91 -90 75 0
w 91 -90 -75 1
w 92 91 76 0
w 92 91 -76 0
w 92 -91 76 0
w 92 -91 -76 1
w 93 92 77 0
w 93 92 -77 1
w 93 -92 77 0
w 93 -92 -77 1
w 94 93 78 0.936177
w 94 93 -78 0.788526
w 94 -93 78 0.186147
w 94 -93 -78 0.608096
w 95 94 79 0.894557
w 95 94 -79 0.252975
w 95 -94 79 0.0700887
w 95 -94 -79 0.807536
w 96 95 80 0
w 96 95 -80 0
w 96 -95 80 1
w 96 -95 -80 0
w 97 81 1
w 97 -81 0
w 98 97 82 0
w 98 97 -82 1
w 98 -97 82 1
w 98 -97 -82 1
w 99 98 83 0.439123
w 99 98 -83 0.745338
w 99 -98 83 0.883769
w 99 -98 -83 0.695517
w 100 99 84 0.737137
w 100 99 -84 0.113118
w 100 -99 84 0.19713
w 100 -99 -84 0.70525
w 101 100 85 1
w 101 100 -85 0
w 101 -100 85 0
w 101 -100 -85 1
w 102 101 86 0.910366
w 102 101 -86 0.849124
w 102 -101 86 0.59349
w 102 -101 -86 0.585052
w 103 102 87 0.371812
w 103 102 -87 0.58076
w 103 -102 87 0.562062
w 103 -102 -87 0.783665
w 104 103 88 0.269996
w 104 103 -88 0.311568
w 104 -103 88 0.82257
w 104 -103 -88 0.200697
w 105 104 89 1
w 105 104 -89 0
w 105 -104 89 0
w 105 -104 -89 0
w 106 105 90 0
w 106 105 -90 1
w 106 -105 90 0
w 106 -105 -90 1
w 107 106 91 1
w 107 106 -91 0
w 107 -106 91 0
w 107 -106 -91 0
w 108 107 92 0.783806
w 108 107 -92 0.0655067
w 108 -107 92 0.677561
w 108 -107 -92 0.377296
w 109 108 93 1
w 109 108 -93 0
w 109 -108 93 1
w 109 -108 -93 0
w 110 109 94 0
w 110 109 -94 0
w 110 -109 94 1
w 110 -109 -94 0
w 111 110 95 1
w 111 110 -95 0
w 111 -110 95 1
w 111 -110 -95 1
w 112 111 96 1
w 112 111 -96 1
w 112 -111 96 0
w 112 -111 -96 0
w 113 97 0.480161
w 113 -97 0.261086
w 114 113 98 0.635302
w 114 113 -98 0.0895238
w 114 -113 98 0.629379
w 114 -113 -98 0.700808
w 115 114 99 0.00667549
w 115 114 -99 0.351367
w 115 -114 99 0.29313
w 115 -114 -99 0.755784
w 116 115 100 1
w 116 115 -100 0
w 116 -115 100 0
w 116 -115 -100 1
w 117 116 101 0
w 117 116 -101 0
w 117 -116 101 0
w 117 -116 -101 1
w 118 117 102 0
w 118 117 -102 1
w 118 -117 102 0
w 118 -117 -102 1
w 119 118 103 0
w 119 118 -103 0
w 119 -118 103 1
w 119 -118 -103 0
w 120 119 104 0
w 120 119 -104 0
w 120 -119 104 1
w 120 -119 -104 1
w 121 120 105 0.0816981
w 121 120 -105 0.638141
w 121 -120 105 0.180765
w 121 -120 -105 0.374828
w 122 121 106 1
w 122 121 -106 0
w 122 -121 106 1
w 122 -121 -106 1
w 123 122 107 0
w 123 122 -107 1
w 123 -122 107 0
w 123 -122 -107 1
w 124 123 108 0
w 124 123 -108 1
w 124 -123 108 1
w 124 -123 -108 0
w 125 124 109 1
w 125 124 -109 1
w 125 -124 109 0
w 125 -124 -109 0
w 126 125 110 0.68423
w 126 125 -110 0.233131
w 126 -125 110 0.956024
w 126 -125 -110 0.998843
w 127 126 111 0.785421
w 127 126 -111 0.0805414
w 127 -126 111 0.502738
w 127 -126 -111 0.966186
w 128 127 112 0
w 128 127 -112 1
w 128 -127 112 0
w 128 -127 -112 0
w 129 113 0
w 129 -113 1
w 130 129 114 0
w 130 129 -114 1
w 130 -129 114 0
w 130 -129 -114 1
w 131 130 115 0
w 131 130 -115 1
w 131 -130 115 1
w 131 -130 -115 1
w 132 131 116 1
w 132 131 -116 0
w 132 -131 116 0
w 132 -131 -116 1
w 133 132 117 0
w 133 132 -117 0
w 133 -132 117 1
w 133 -132 -117 0
w 134 133 118 0.98961
w 134 133 -118 0.980915
w 134 -133 118 0.449051
w 134 -133 -118 0.886274
w 135 134 119 0
w 135 134 -119 0
w 135 -134 119 0
w 135 -134 -119 1
w 136 135 120 0.867707
w 136 135 -120 0.392914
w 136 -135 120 0.29689
w 136 -135 -120 0.658392
w 137 136 121 0
w 137 136 -121 1
w 137 -136 121 0
w 137 -136 -121 0
w 138 137 122 1
w 138 137 -122 0
w 138 -137 122 1
w 138 -137 -122 0
w 139 138 123 1
w 139 138 -123 0
w 139 -138 123 0
w 139 -138 -123 1
w 140 139 124 0
w 140 139 -124 0
w 140 -139 124 1
w 140 -139 -124 0
w 141 140 125 0
w 141 140 -125 1
w 141 -140 125 1
w 141 -140 -125 1
w 142 141 126 1
w 142 141 -126 0
w 142 -141 126 0
w 142 -141 -126 1
w 143 142 127 0
w 143 142 -127 0
w 143 -142 127 1
w 143 -142 -127 0
w 144 143 128 1
w 144 143 -128 0
w 144 -143 128 1
w 144 -143 -128 1
w 145 129 0.687586
w 145 -129 0.490155
w 146 145 130 0.420854
w 146 145 -130 0.980966
w 146 -145 130 0.020131
w 146 -145 -130 0.135039
w 147 146 131 0.932865
w 147 146 -131 0.559774
w 147 -146 131 0.521179
w 147 -146 -131 0.31102
w 148 147 132 0.488852
w 148 147 -132 0.549122
w 148 -147 132 0.107181
w 148 -147 -132 0.324232
w 149 148 133 1
w 149 148 -133 0
w 149 -148 133 1
w 149 -148 -133 1
w 150 149 134 0
w 150 149 -134 0
w 150 -149 134 0
w 150 -149 -134 1
w 151 150 135 1
w 151 150 -135 1
w 151 -150 135 0
w 151 -150 -135 1
w 152 151 136 1
w 152 151 -136 1
w 152 -151 136 0
w 152 -151 -136 1
w 153 152 137 0.0132075
w 153 152 -137 0.397359
w 153 -152 137 0.333987
w 153 -152 -137 0.534386
w 154 153 138 1
w 154 153 -138 1
w 154 -153 138 1
w 154 -153 -138 0
w 155 154 139 0
w 155 154 -139 1
w 155 -154 139 1
w 155 -154 -139 1
w 156 155 140 1
w 156 155 -140 0
w 156 -155 140 1
w 156 -155 -140 1
w 157 156 141 0.141203
w 157 156 -141 0.339769
w 157 -156 141 0.386181
w 157 -156 -141 0.591894
w 158 157 142 0
w 158 157 -142 1
w 158 -157 142 1
w 158 -157 -142 1
w 159 158 143 0.603177
w 159 158 -143 0.89811
w 159 -158 143 0.305461
w 159 -158 -143 0.137563
w 160 159 144 1
w 160 159 -144 1
w 160 -159 144 0
w 160 -159 -144 1
w 161 145 0
w 161 -145 1
w 162 161 146 1
w 162 161 -146 0
w 162 -161 146 0
w 162 -161 -146 0
w 163 162 147 1
w 163 162 -147 0
w 163 -162 147 1
w 163 -162 -147 0
w 164 163 148 0
w 164 163 -148 0
w 164 -163 148 0
w 164 -163 -148 1
w 165 164 149 0
w 165 164 -149 1
w 165 -164 149 1
w 165 -164 -149 1
w 166 165 150 0
w 166 165 -150 1
w 166 -165 150 1
w 166 -165 -150 1
w 167 166 151 0
w 167 166 -151 1
w 167 -166 151 1
w 167 -166 -151 0
w 168 167 152 0.0750195
w 168 167 -152 0.678043
w 168 -167 152 0.0880139
w 168 -167 -152 0.356255
w 169 168 153 1
w 169 168 -153 1
w 169 -168 153 0
w 169 -168 -153 1
w 170 169 154 0
w 170 169 -154 1
w 170 -169 154 0
w 170 -169 -154 1
w 171 170 155 1
w 171 170 -155 1
w 171 -170 155 1
w 171 -170 -155 0
w 172 171 156 0
w 172 171 -156 0
w 172 -171 156 1
w 172 -171 -156 1
w 173 172 157 1
w 173 172 -157 1
w 173 -172 157 0
w 173 -172 -157 1
w 174 173 158 0
w 174 173 -158 1
w 174 -173 158 1
w 174 -173 -158 1
w 175 174 159 0.680895
w 175 174 -159 0.407065
w 175 -174 159 0.310129
w 175 -174 -159 0.245464
w 176 175 160 0.709293
w 176 175 -160 0.316953
w 176 -175 160 0.777913
w 176 -175 -160 0.736443
w 177 161 0
w 177 -161 1
w 178 177 162 0
w 178 177 -162 0
w 178 -177 162 1
w 178 -177 -162 0
w 179 178 163 0.13494
w 179 178 -163 0.127473
w 179 -178 163 0.326137
w 179 -178 -163 0.834326
w 180 179 164 0
w 180 179 -164 1
w 180 -179 164 1
w 180 -179 -164 0
w 181 180 165 0.793752
w 181 180 -165 0.905336
w 181 -180 165 0.900597
w 181 -180 -165 0.474647
w 182 181 166 1
w 182 181 -166 0
w 182 -181 166 1
w 182 -181 -166 1
w 183 182 167 0
w 183 182 -167 0
w 183 -182 167 1
w 183 -182 -167 1
w 184 183 168 0
w 184 183 -168 1
w 184 -183 168 1
w 184 -183 -168 0
w 185 184 169 1
w 185 184 -169 0
w 185 -184 169 1
w 185 -184 -169 0
w 186 185 170 1
w 186 185 -170 1
w 186 -185 170 0
w 186 -185 -170 0
w 187 186 171 0
w 187 186 -171 0
w 187 -186 171 1
w 187 -186 -171 0
w 188 187 172 0
w 188 187 -172 0
w 188 -187 172 0
w 188 -187 -172 1
w 189 188 173 0.280943
w 189 188 -173 0.742617
w 189 -188 173 0.539842
w 189 -188 -173 0.71096
w 190 189 174 0
w 190 189 -174 0
w 190 -189 174 0
w 190 -189 -174 1
w 191 190 175 0
w 191 190 -175 0
w 191 -190 175 1
w 191 -190 -175 0
w 192 191 176 0
w 192 191 -176 1
w 192 -191 176 0
w 192 -191 -176 0
w 193 177 1
w 193 -177 0
w 194 193 178 1
w 194 193 -178 0
w 194 -193 178 1
w 194 -193 -178 1
w 195 194 179 1
w 195 194 -179 0
w 195 -194 179 0
w 195 -194 -179 0
w 196 195 180 0
w 196 195 -180 0
w 196 -195 180 1
w 196 -195 -180 1
w 197 196 181 0
w 197 196 -181 1
w 197 -196 181 0
w 197 -196 -181 1
w 198 197 182 0.301734
w 198 197 -182 0.0762877
w 198 -197 182 0.120142
w 198 -197 -182 0.841306
w 199 198 183 1
w 199 198 -183 0
w 199 -198 183 0
w 199 -198 -183 0
w 200 199 184 0
w 200 199 -184 1
w 200 -199 184 1
w 200 -199 -184 1
w 201 200 185 1
w 201 200 -185 0
w 201 -200 185 0
w 201 -200 -185 1
w 202 201 186 0
w 202 201 -186 1
w 202 -201 186 1
w 202 -201 -186 1
w 203 202 187 1
w 203 202 -187 0
w 203 -202 187 1
w 203 -202 -187 0
w 204 203 188 1
w 204 203 -188 0
w 204 -203 188 0
w 204 -203 -188 0
w 205 204 189 0.416403
w 205 204 -189 0.976966
w 205 -204 189 0.196062
w 205 -204 -189 0.567225
w 206 205 190 0
w 206 205 -190 0
w 206 -205 190 0
w 206 -205 -190 1
w 207 206 191 0.832474
w 207 206 -191 0.110342
w 207 -206 191 0.650793
w 207 -206 -191 0.699824
w 208 207 192 0
w 208 207 -192 1
w 208 -207 192 1
w 208 -207 -192 1
w 209 193 0.466924
w 209 -193 0.862665
w 210 209 194 0
w 210 209 -194 0
w 210 -209 194 1
w 210 -209 -194 0
w 211 210 195 0.994088
w 211 210 -195 0.481553
w 211 -210 195 0.781551
w 211 -210 -195 0.19015
w 212 211 196 1
w 212 211 -196 1
w 212 -211 196 1
w 212 -211 -196 0
w 213 212 197 1
w 213 212 -197 0
w 213 -212 197 0
w 213 -212 -197 1
w 214 213 198 0.464449
w 214 213 -198 0.948
w 214 -213 198 0.492826
w 214 -213 -198 0.485677
w 215 214 199 1
w 215 214 -199 0
w 215 -214 199 0
w 215 -214 -199 1
w 216 215 200 0
w 216 215 -200 0
w 216 -215 200 0
w 216 -215 -200 1
w 217 216 201 0.854009
w 217 216 -201 0.197208
w 217 -216 201 0.743243
w 217 -216 -201 0.0441586
w 218 217 202 0
w 218 217 -202 0
w 218 -217 202 0
w 218 -217 -202 1
w 219 218 203 1
w 219 218 -203 0
w 219 -218 203 0
w 219 -218 -203 1
w 220 219 204 1
w 220 219 -204 0
w 220 -219 204 1
w 220 -219 -204 0
w 221 220 205 1
w 221 220 -205 1
w 221 -220 205 0
w 221 -220 -205 1
w 222 221 206 1
w 222 221 -206 1
w 222 -221 206 0
w 222 -221 -206 0
w 223 222 207 1
w 223 222 -207 0
w 223 -222 207 0
w 223 -222 -207 0
w 224 223 208 0.931475
w 224 223 -208 0.308077
w 224 -223 208 0.937412
w 224 -223 -208 0.402659
w 225 209 0.35506
w 225 -209 0.159618
w 226 225 210 0.945517
w 226 225 -210 0.312693
w 226 -225 210 0.830131
w 226 -225 -210 0.408609
w 227 226 211 0.808928
w 227 226 -211 0.364526
w 227 -226 211 0.0334182
w 227 -226 -211 0.125923
w 228 227 212 0
w 228 227 -212 0
w 228 -227 212 0
w 228 -227 -212 1
w 229 228 213 0
w 229 228 -213 1
w 229 -228 213 0
w 229 -228 -213 1
w 230 229 214 0
w 230 229 -214 1
w 230 -229 214 0
w 230 -229 -214 1
w 231 230 215 0
w 231 230 -215 1
w 231 -230 215 0
w 231 -230 -215 1
w 232 231 216 0
w 232 231 -216 0
w 232 -231 216 0
w 232 -231 -216 1
w 233 232 217 0.9311
w 233 232 -217 0.938784
w 233 -232 217 0.178118
w 233 -232 -217 0.964518
w 234 233 218 0
w 234 233 -218 1
w 234 -233 218 1
w 234 -233 -218 0
w 235 234 219 0.333416
w 235 234 -219 0.369648
w 235 -234 219 0.411497
w 235 -234 -219 0.842363
w 236 235 220 1
w 236 235 -220 0
w 236 -235 220 0
w 236 -235 -220 0
w 237 236 221 0
w 237 236 -221 1
w 237 -236 221 0
w 237 -236 -221 1
w 238 237 222 0
w 238 237 -222 1
w 238 -237 222 1
w 238 -237 -222 1
w 239 238 223 0
w 239 238 -223 0
w 239 -238 223 1
w 239 -238 -223 1
w 240 239 224 1
w 240 239 -224 0
w 240 -239 224 1
w 240 -239 -224 0
w 241 225 0
w 241 -225 1
w 242 241 226 0.999539
w 242 241 -226 0.887668
w 242 -241 226 0.263288
w 242 -241 -226 0.71793
w 243 242 227 0.0708172
w 243 242 -227 0.603314
w 243 -242 227 0.0871802
w 243 -242 -227 0.536493
w 244 243 228 0
w 244 243 -228 1
w 244 -243 228 1
w 244 -243 -228 1
w 245 244 229 0.896601
w 245 244 -229 0.538292
w 245 -244 229 0.164003
w 245 -244 -229 0.564434
w 246 245 230 0.498436
w 246 245 -230 0.410385
w 246 -245 230 0.12572
w 246 -245 -230 0.897576
w 247 246 231 1
w 247 246 -231 1
w 247 -246 231 1
w 247 -246 -231 0
w 248 247 232 0
w 248 247 -232 1
w 248 -247 232 0
w 248 -247 -232 1
w 249 248 233 1
w 249 248 -233 1
w 249 -248 233 1
w 249 -248 -233 0
w 250 249 234 0
w 250 249 -234 0
w 250 -249 234 1
w 250 -249 -234 1
w 251 250 235 0
w 251 250 -235 0
w 251 -250 235 1
w 251 -250 -235 0
w 252 251 236 0.878527
w 252 251 -236 0.0916713
w 252 -251 236 0.208929
w 252 -251 -236 0.00424685
w 253 252 237 0.254642
w 253 252 -237 0.797465
w 253 -252 237 0.598713
w 253 -252 -237 0.736534
w 254 253 238 1
w 254 253 -238 0
w 254 -253 238 1
w 254 -253 -238 1
w 255 254 239 1
w 255 254 -239 0
w 255 -254 239 0
w 255 -254 -239 0
w 256 255 240 0.355407
w 256 255 -240 0.655448
w 256 -255 240 0.14947
w 256 -255 -240 0.0162854